(declare-const tmp Int)
(declare-const term_to_project_onto0 Real)
(declare-const |tmp'| Int)
(declare-const uninterp2 Int)
(declare-const k Int)
(declare-const counter Int)
(declare-const x Int)
(declare-const uninterp Int)
(declare-const term_to_project_onto3 Real)
(declare-const uninterp0 Int)
(declare-const |counter'| Int)
(declare-const term_to_project_onto Real)
(declare-const uninterp1 Int)
(declare-const |y'| Int)
(declare-const |x'| Int)
(declare-const term_to_project_onto1 Real)
(declare-const |c'| Int)
(declare-const term_to_project_onto2 Real)
(declare-const c Int)
(declare-const y Int)
(assert (and (<= (- c) 0) (<= (- y) 0) (= (+ y (- c)) 0) (<= counter 0)
               (= (+ (* -30 x) (* 6 uninterp1) (* 15 uninterp0)
                       (* 10 uninterp2) (- y)) 0) (<= (+ (- k) c 1) 0)
               (= (+ |tmp'| (- counter)) 0) (= (+ |c'| (- c) -1) 0)
               (= (+ |x'| (- x) (- uninterp0) (* -4 uninterp2)
                       (* -6 uninterp) (* -4 y) -1) 0)
               (= (+ |y'| (- y) -1) 0) (= (+ |counter'| (- counter) -1) 0)
               (<= 0 uninterp2) (<= 0 uninterp1) (<= 0 uninterp0)
               (<= 0 uninterp)
               (= term_to_project_onto3 (+ |counter'| (- counter)))
               (= term_to_project_onto2 (+ |y'| (- y)))
               (= term_to_project_onto1 (+ |x'| (- x)))
               (= term_to_project_onto0 (+ |c'| (- c)))
               (= term_to_project_onto (+ |tmp'| (- tmp)))))
(check-sat)
